(set-logic QF_S)
(declare-fun _var_0xINPUT_167781_() String)
(declare-fun __woorpje_diseq_pref0_() String)
(declare-fun __woorpje_diseq_suf_l0_() String)
(declare-fun __woorpje_diseq_suf_r0_() String)
(assert (=(str.++  "1wnxCD2eDV" "")(str.++ _var_0xINPUT_167781_  "")) )
(check-sat)
